c turning on binary mode checking
c parsing input formula with 259840 variables and 1039934 clauses
c finished parsing, read 3013505 bytes from proof file
c detected empty clause; start verification via backward checking
c 3723 of 1039934 clauses in core                            
c 1223 of 129317 lemmas in core using 22390 resolution steps
c 0 RAT lemmas in core; 112 redundant literals in core lemmas
s VERIFIED
c verification time: 1.014 seconds
